Route #1: 1 1 5 13 8 23 17 14 29 1 
Route #2: 1 28 40 20 7 31 15 1 
Route #3: 1 25 9 4 39 38 19 26 1 
Route #4: 1 27 21 3 37 2 24 35 11 1 
Route #5: 1 6 33 34 32 36 22 1 
Route #6: 1 12 10 16 30 18 1 

Cost 1081.63
Time 0.2788


 * Another infos *

 Iterations: 41 Time: 0.2788 sec - 0.0046 min - 0.0001 horas
0.0000 h 0.0046 min
Problem dimension: 41
